c This is it
p cnf 364 2588
9 10 11 12 0
13 14 15 16 0
17 18 19 20 0
21 22 23 24 0
-9 -10 0
-9 -11 0
-9 -12 0
-10 -11 0
-10 -12 0
-11 -12 0
-13 -14 0
-13 -15 0
-13 -16 0
-14 -15 0
-14 -16 0
-15 -16 0
-17 -18 0
-17 -19 0
-17 -20 0
-18 -19 0
-18 -20 0
-19 -20 0
-21 -22 0
-21 -23 0
-21 -24 0
-22 -23 0
-22 -24 0
-23 -24 0
1 2 0
3 4 0
5 6 0
7 8 0
-1 -2 0
-3 -4 0
-5 -6 0
-7 -8 0
-25 0
26 0
-27 0
-28 0
-29 0
-30 0
-31 0
-32 0
-33 0
-34 0
-35 0
-36 0
-37 0
-235 0
-236 0
-237 0
-238 0
-239 0
-240 0
-241 0
242 0
-243 0
-244 0
-245 0
-246 0
-247 0
-300 0
-301 0
302 0
-303 0
-304 0
-305 0
-306 0
-307 0
-308 0
-309 0
-310 0
-311 0
-312 0
-300 313 0
-313 326 0
-326 339 0
-339 352 0
-25 -40 0
-25 -41 0
-25 -42 0
-25 -43 0
-25 -44 0
-25 -45 0
-25 -46 0
-25 -47 0
-25 -48 0
-25 -49 0
-25 -50 0
-38 -53 0
-38 -54 0
-38 -55 0
-38 -56 0
-38 -57 0
-38 -58 0
-38 -59 0
-38 -60 0
-38 -61 0
-38 -62 0
-38 -63 0
-51 -66 0
-51 -67 0
-51 -68 0
-51 -69 0
-51 -70 0
-51 -71 0
-51 -72 0
-51 -73 0
-51 -74 0
-51 -75 0
-51 -76 0
-64 -79 0
-64 -80 0
-64 -81 0
-64 -82 0
-64 -83 0
-64 -84 0
-64 -85 0
-64 -86 0
-64 -87 0
-64 -88 0
-64 -89 0
-25 -38 2 0
-38 -51 4 0
-51 -64 6 0
-64 -77 8 0
-25 -9 0
-25 -10 0
-25 -11 0
-38 -13 0
-38 -14 0
-38 -15 0
-51 -17 0
-51 -18 0
-51 -19 0
-64 -21 0
-64 -22 0
-64 -23 0
-25 -237 250 0
-25 -238 251 0
-25 -239 252 0
-25 -240 253 0
-25 -241 254 0
-25 -242 255 0
-25 -243 256 0
-25 -244 257 0
-25 -245 258 0
-25 -246 259 0
-25 -247 260 0
-38 -250 263 0
-38 -251 264 0
-38 -252 265 0
-38 -253 266 0
-38 -254 267 0
-38 -255 268 0
-38 -256 269 0
-38 -257 270 0
-38 -258 271 0
-38 -259 272 0
-38 -260 273 0
-51 -263 276 0
-51 -264 277 0
-51 -265 278 0
-51 -266 279 0
-51 -267 280 0
-51 -268 281 0
-51 -269 282 0
-51 -270 283 0
-51 -271 284 0
-51 -272 285 0
-51 -273 286 0
-64 -276 289 0
-64 -277 290 0
-64 -278 291 0
-64 -279 292 0
-64 -280 293 0
-64 -281 294 0
-64 -282 295 0
-64 -283 296 0
-64 -284 297 0
-64 -285 298 0
-64 -286 299 0
-235 2 248 0
-248 4 261 0
-261 6 274 0
-274 8 287 0
-25 38 1 0
-38 51 3 0
-51 64 5 0
-64 77 7 0
-25 -1 -12 39 0
-38 -3 -16 52 0
-51 -5 -20 65 0
-64 -7 -24 78 0
-25 -1 -12 -249 0
-38 -3 -16 -262 0
-51 -5 -20 -275 0
-64 -7 -24 -288 0
-25 -2 -12 236 0
-38 -4 -16 249 0
-51 -6 -20 262 0
-64 -8 -24 275 0
-25 -2 -12 -249 0
-38 -4 -16 -262 0
-51 -6 -20 -275 0
-64 -8 -24 -288 0
-235 -2 -12 249 0
-248 -4 -16 262 0
-261 -6 -20 275 0
-274 -8 -24 288 0
-235 -1 -12 -249 0
-248 -3 -16 -262 0
-261 -5 -20 -275 0
-274 -7 -24 -288 0
-235 -1 -12 -314 0
-248 -3 -16 -327 0
-261 -5 -20 -340 0
-274 -7 -24 -353 0
-301 314 0
-314 327 0
-327 340 0
-340 353 0
-26 -40 0
-26 -42 0
-26 -43 0
-26 -44 0
-26 -45 0
-26 -46 0
-26 -47 0
-26 -48 0
-26 -49 0
-26 -50 0
-39 -53 0
-39 -55 0
-39 -56 0
-39 -57 0
-39 -58 0
-39 -59 0
-39 -60 0
-39 -61 0
-39 -62 0
-39 -63 0
-52 -66 0
-52 -68 0
-52 -69 0
-52 -70 0
-52 -71 0
-52 -72 0
-52 -73 0
-52 -74 0
-52 -75 0
-52 -76 0
-65 -79 0
-65 -81 0
-65 -82 0
-65 -83 0
-65 -84 0
-65 -85 0
-65 -86 0
-65 -87 0
-65 -88 0
-65 -89 0
-26 -39 2 0
-39 -52 4 0
-52 -65 6 0
-65 -78 8 0
-26 -9 0
-26 -10 0
-39 -13 0
-39 -14 0
-52 -17 0
-52 -18 0
-65 -21 0
-65 -22 0
-26 -237 250 0
-26 -239 252 0
-26 -240 253 0
-26 -241 254 0
-26 -242 255 0
-26 -243 256 0
-26 -244 257 0
-26 -245 258 0
-26 -246 259 0
-26 -247 260 0
-39 -250 263 0
-39 -252 265 0
-39 -253 266 0
-39 -254 267 0
-39 -255 268 0
-39 -256 269 0
-39 -257 270 0
-39 -258 271 0
-39 -259 272 0
-39 -260 273 0
-52 -263 276 0
-52 -265 278 0
-52 -266 279 0
-52 -267 280 0
-52 -268 281 0
-52 -269 282 0
-52 -270 283 0
-52 -271 284 0
-52 -272 285 0
-52 -273 286 0
-65 -276 289 0
-65 -278 291 0
-65 -279 292 0
-65 -280 293 0
-65 -281 294 0
-65 -282 295 0
-65 -283 296 0
-65 -284 297 0
-65 -285 298 0
-65 -286 299 0
-236 2 249 0
-249 4 262 0
-262 6 275 0
-275 8 288 0
-26 39 1 0
-39 52 3 0
-52 65 5 0
-65 78 7 0
-26 -1 -11 38 0
-39 -3 -15 51 0
-52 -5 -19 64 0
-65 -7 -23 77 0
-26 -1 -11 -248 0
-39 -3 -15 -261 0
-52 -5 -19 -274 0
-65 -7 -23 -287 0
-26 -1 -11 -41 0
-39 -3 -15 -54 0
-52 -5 -19 -67 0
-65 -7 -23 -80 0
-26 -2 -11 235 0
-39 -4 -15 248 0
-52 -6 -19 261 0
-65 -8 -23 274 0
-26 -2 -11 -248 0
-39 -4 -15 -261 0
-52 -6 -19 -274 0
-65 -8 -23 -287 0
-236 -2 -11 248 0
-249 -4 -15 261 0
-262 -6 -19 274 0
-275 -8 -23 287 0
-236 -1 -11 -248 0
-249 -3 -15 -261 0
-262 -5 -19 -274 0
-275 -7 -23 -287 0
-236 -1 -11 -313 0
-249 -3 -15 -326 0
-262 -5 -19 -339 0
-275 -7 -23 -352 0
-26 -11 -238 251 0
-39 -15 -251 264 0
-52 -19 -264 277 0
-65 -23 -277 290 0
-26 -1 -12 41 0
-39 -3 -16 54 0
-52 -5 -20 67 0
-65 -7 -24 80 0
-26 -1 -12 -251 0
-39 -3 -16 -264 0
-52 -5 -20 -277 0
-65 -7 -24 -290 0
-26 -1 -12 -38 0
-39 -3 -16 -51 0
-52 -5 -20 -64 0
-65 -7 -24 -77 0
-26 -2 -12 238 0
-39 -4 -16 251 0
-52 -6 -20 264 0
-65 -8 -24 277 0
-26 -2 -12 -251 0
-39 -4 -16 -264 0
-52 -6 -20 -277 0
-65 -8 -24 -290 0
-236 -2 -12 251 0
-249 -4 -16 264 0
-262 -6 -20 277 0
-275 -8 -24 290 0
-236 -1 -12 -251 0
-249 -3 -16 -264 0
-262 -5 -20 -277 0
-275 -7 -24 -290 0
-236 -1 -12 -316 0
-249 -3 -16 -329 0
-262 -5 -20 -342 0
-275 -7 -24 -355 0
-26 -12 -235 248 0
-39 -16 -248 261 0
-52 -20 -261 274 0
-65 -24 -274 287 0
-302 315 0
-315 328 0
-328 341 0
-341 354 0
-27 -38 0
-27 -39 0
-27 -41 0
-27 -43 0
-27 -44 0
-27 -45 0
-27 -46 0
-27 -47 0
-27 -48 0
-27 -49 0
-27 -50 0
-40 -51 0
-40 -52 0
-40 -54 0
-40 -56 0
-40 -57 0
-40 -58 0
-40 -59 0
-40 -60 0
-40 -61 0
-40 -62 0
-40 -63 0
-53 -64 0
-53 -65 0
-53 -67 0
-53 -69 0
-53 -70 0
-53 -71 0
-53 -72 0
-53 -73 0
-53 -74 0
-53 -75 0
-53 -76 0
-66 -77 0
-66 -78 0
-66 -80 0
-66 -82 0
-66 -83 0
-66 -84 0
-66 -85 0
-66 -86 0
-66 -87 0
-66 -88 0
-66 -89 0
-27 -40 2 0
-40 -53 4 0
-53 -66 6 0
-66 -79 8 0
-27 -9 0
-27 -10 0
-27 -11 0
-40 -13 0
-40 -14 0
-40 -15 0
-53 -17 0
-53 -18 0
-53 -19 0
-66 -21 0
-66 -22 0
-66 -23 0
-27 -235 248 0
-27 -236 249 0
-27 -238 251 0
-27 -240 253 0
-27 -241 254 0
-27 -242 255 0
-27 -243 256 0
-27 -244 257 0
-27 -245 258 0
-27 -246 259 0
-27 -247 260 0
-40 -248 261 0
-40 -249 262 0
-40 -251 264 0
-40 -253 266 0
-40 -254 267 0
-40 -255 268 0
-40 -256 269 0
-40 -257 270 0
-40 -258 271 0
-40 -259 272 0
-40 -260 273 0
-53 -261 274 0
-53 -262 275 0
-53 -264 277 0
-53 -266 279 0
-53 -267 280 0
-53 -268 281 0
-53 -269 282 0
-53 -270 283 0
-53 -271 284 0
-53 -272 285 0
-53 -273 286 0
-66 -274 287 0
-66 -275 288 0
-66 -277 290 0
-66 -279 292 0
-66 -280 293 0
-66 -281 294 0
-66 -282 295 0
-66 -283 296 0
-66 -284 297 0
-66 -285 298 0
-66 -286 299 0
-237 2 250 0
-250 4 263 0
-263 6 276 0
-276 8 289 0
-27 40 1 0
-40 53 3 0
-53 66 5 0
-66 79 7 0
-27 -1 -12 42 0
-40 -3 -16 55 0
-53 -5 -20 68 0
-66 -7 -24 81 0
-27 -1 -12 -252 0
-40 -3 -16 -265 0
-53 -5 -20 -278 0
-66 -7 -24 -291 0
-27 -2 -12 239 0
-40 -4 -16 252 0
-53 -6 -20 265 0
-66 -8 -24 278 0
-27 -2 -12 -252 0
-40 -4 -16 -265 0
-53 -6 -20 -278 0
-66 -8 -24 -291 0
-237 -2 -12 252 0
-250 -4 -16 265 0
-263 -6 -20 278 0
-276 -8 -24 291 0
-237 -1 -12 -252 0
-250 -3 -16 -265 0
-263 -5 -20 -278 0
-276 -7 -24 -291 0
-237 -1 -12 -317 0
-250 -3 -16 -330 0
-263 -5 -20 -343 0
-276 -7 -24 -356 0
-303 316 0
-316 329 0
-329 342 0
-342 355 0
-28 -38 0
-28 -40 0
-28 -42 0
-28 -44 0
-28 -45 0
-28 -46 0
-28 -47 0
-28 -48 0
-28 -49 0
-28 -50 0
-41 -51 0
-41 -53 0
-41 -55 0
-41 -57 0
-41 -58 0
-41 -59 0
-41 -60 0
-41 -61 0
-41 -62 0
-41 -63 0
-54 -64 0
-54 -66 0
-54 -68 0
-54 -70 0
-54 -71 0
-54 -72 0
-54 -73 0
-54 -74 0
-54 -75 0
-54 -76 0
-67 -77 0
-67 -79 0
-67 -81 0
-67 -83 0
-67 -84 0
-67 -85 0
-67 -86 0
-67 -87 0
-67 -88 0
-67 -89 0
-28 -41 2 0
-41 -54 4 0
-54 -67 6 0
-67 -80 8 0
-28 -9 0
-28 -10 0
-41 -13 0
-41 -14 0
-54 -17 0
-54 -18 0
-67 -21 0
-67 -22 0
-28 -235 248 0
-28 -237 250 0
-28 -239 252 0
-28 -241 254 0
-28 -242 255 0
-28 -243 256 0
-28 -244 257 0
-28 -245 258 0
-28 -246 259 0
-28 -247 260 0
-41 -248 261 0
-41 -250 263 0
-41 -252 265 0
-41 -254 267 0
-41 -255 268 0
-41 -256 269 0
-41 -257 270 0
-41 -258 271 0
-41 -259 272 0
-41 -260 273 0
-54 -261 274 0
-54 -263 276 0
-54 -265 278 0
-54 -267 280 0
-54 -268 281 0
-54 -269 282 0
-54 -270 283 0
-54 -271 284 0
-54 -272 285 0
-54 -273 286 0
-67 -274 287 0
-67 -276 289 0
-67 -278 291 0
-67 -280 293 0
-67 -281 294 0
-67 -282 295 0
-67 -283 296 0
-67 -284 297 0
-67 -285 298 0
-67 -286 299 0
-238 2 251 0
-251 4 264 0
-264 6 277 0
-277 8 290 0
-28 41 1 0
-41 54 3 0
-54 67 5 0
-67 80 7 0
-28 -1 -11 39 0
-41 -3 -15 52 0
-54 -5 -19 65 0
-67 -7 -23 78 0
-28 -1 -11 -249 0
-41 -3 -15 -262 0
-54 -5 -19 -275 0
-67 -7 -23 -288 0
-28 -1 -11 -43 0
-41 -3 -15 -56 0
-54 -5 -19 -69 0
-67 -7 -23 -82 0
-28 -2 -11 236 0
-41 -4 -15 249 0
-54 -6 -19 262 0
-67 -8 -23 275 0
-28 -2 -11 -249 0
-41 -4 -15 -262 0
-54 -6 -19 -275 0
-67 -8 -23 -288 0
-238 -2 -11 249 0
-251 -4 -15 262 0
-264 -6 -19 275 0
-277 -8 -23 288 0
-238 -1 -11 -249 0
-251 -3 -15 -262 0
-264 -5 -19 -275 0
-277 -7 -23 -288 0
-238 -1 -11 -314 0
-251 -3 -15 -327 0
-264 -5 -19 -340 0
-277 -7 -23 -353 0
-28 -11 -240 253 0
-41 -15 -253 266 0
-54 -19 -266 279 0
-67 -23 -279 292 0
-28 -1 -12 43 0
-41 -3 -16 56 0
-54 -5 -20 69 0
-67 -7 -24 82 0
-28 -1 -12 -253 0
-41 -3 -16 -266 0
-54 -5 -20 -279 0
-67 -7 -24 -292 0
-28 -1 -12 -39 0
-41 -3 -16 -52 0
-54 -5 -20 -65 0
-67 -7 -24 -78 0
-28 -2 -12 240 0
-41 -4 -16 253 0
-54 -6 -20 266 0
-67 -8 -24 279 0
-28 -2 -12 -253 0
-41 -4 -16 -266 0
-54 -6 -20 -279 0
-67 -8 -24 -292 0
-238 -2 -12 253 0
-251 -4 -16 266 0
-264 -6 -20 279 0
-277 -8 -24 292 0
-238 -1 -12 -253 0
-251 -3 -16 -266 0
-264 -5 -20 -279 0
-277 -7 -24 -292 0
-238 -1 -12 -318 0
-251 -3 -16 -331 0
-264 -5 -20 -344 0
-277 -7 -24 -357 0
-28 -12 -236 249 0
-41 -16 -249 262 0
-54 -20 -262 275 0
-67 -24 -275 288 0
-304 317 0
-317 330 0
-330 343 0
-343 356 0
-29 -38 0
-29 -39 0
-29 -41 0
-29 -43 0
-29 -44 0
-29 -45 0
-29 -47 0
-29 -48 0
-29 -49 0
-29 -50 0
-42 -51 0
-42 -52 0
-42 -54 0
-42 -56 0
-42 -57 0
-42 -58 0
-42 -60 0
-42 -61 0
-42 -62 0
-42 -63 0
-55 -64 0
-55 -65 0
-55 -67 0
-55 -69 0
-55 -70 0
-55 -71 0
-55 -73 0
-55 -74 0
-55 -75 0
-55 -76 0
-68 -77 0
-68 -78 0
-68 -80 0
-68 -82 0
-68 -83 0
-68 -84 0
-68 -86 0
-68 -87 0
-68 -88 0
-68 -89 0
-29 -42 2 0
-42 -55 4 0
-55 -68 6 0
-68 -81 8 0
-29 -9 0
-29 -10 0
-42 -13 0
-42 -14 0
-55 -17 0
-55 -18 0
-68 -21 0
-68 -22 0
-29 -235 248 0
-29 -236 249 0
-29 -238 251 0
-29 -240 253 0
-29 -241 254 0
-29 -242 255 0
-29 -244 257 0
-29 -245 258 0
-29 -246 259 0
-29 -247 260 0
-42 -248 261 0
-42 -249 262 0
-42 -251 264 0
-42 -253 266 0
-42 -254 267 0
-42 -255 268 0
-42 -257 270 0
-42 -258 271 0
-42 -259 272 0
-42 -260 273 0
-55 -261 274 0
-55 -262 275 0
-55 -264 277 0
-55 -266 279 0
-55 -267 280 0
-55 -268 281 0
-55 -270 283 0
-55 -271 284 0
-55 -272 285 0
-55 -273 286 0
-68 -274 287 0
-68 -275 288 0
-68 -277 290 0
-68 -279 292 0
-68 -280 293 0
-68 -281 294 0
-68 -283 296 0
-68 -284 297 0
-68 -285 298 0
-68 -286 299 0
-239 2 252 0
-252 4 265 0
-265 6 278 0
-278 8 291 0
-29 42 1 0
-42 55 3 0
-55 68 5 0
-68 81 7 0
-29 -1 -11 40 0
-42 -3 -15 53 0
-55 -5 -19 66 0
-68 -7 -23 79 0
-29 -1 -11 -250 0
-42 -3 -15 -263 0
-55 -5 -19 -276 0
-68 -7 -23 -289 0
-29 -1 -11 -46 0
-42 -3 -15 -59 0
-55 -5 -19 -72 0
-68 -7 -23 -85 0
-29 -2 -11 237 0
-42 -4 -15 250 0
-55 -6 -19 263 0
-68 -8 -23 276 0
-29 -2 -11 -250 0
-42 -4 -15 -263 0
-55 -6 -19 -276 0
-68 -8 -23 -289 0
-239 -2 -11 250 0
-252 -4 -15 263 0
-265 -6 -19 276 0
-278 -8 -23 289 0
-239 -1 -11 -250 0
-252 -3 -15 -263 0
-265 -5 -19 -276 0
-278 -7 -23 -289 0
-239 -1 -11 -315 0
-252 -3 -15 -328 0
-265 -5 -19 -341 0
-278 -7 -23 -354 0
-29 -11 -243 256 0
-42 -15 -256 269 0
-55 -19 -269 282 0
-68 -23 -282 295 0
-29 -1 -12 46 0
-42 -3 -16 59 0
-55 -5 -20 72 0
-68 -7 -24 85 0
-29 -1 -12 -256 0
-42 -3 -16 -269 0
-55 -5 -20 -282 0
-68 -7 -24 -295 0
-29 -1 -12 -40 0
-42 -3 -16 -53 0
-55 -5 -20 -66 0
-68 -7 -24 -79 0
-29 -2 -12 243 0
-42 -4 -16 256 0
-55 -6 -20 269 0
-68 -8 -24 282 0
-29 -2 -12 -256 0
-42 -4 -16 -269 0
-55 -6 -20 -282 0
-68 -8 -24 -295 0
-239 -2 -12 256 0
-252 -4 -16 269 0
-265 -6 -20 282 0
-278 -8 -24 295 0
-239 -1 -12 -256 0
-252 -3 -16 -269 0
-265 -5 -20 -282 0
-278 -7 -24 -295 0
-239 -1 -12 -321 0
-252 -3 -16 -334 0
-265 -5 -20 -347 0
-278 -7 -24 -360 0
-29 -12 -237 250 0
-42 -16 -250 263 0
-55 -20 -263 276 0
-68 -24 -276 289 0
-305 318 0
-318 331 0
-331 344 0
-344 357 0
-30 -38 0
-30 -39 0
-30 -40 0
-30 -42 0
-30 -45 0
-30 -46 0
-30 -48 0
-30 -49 0
-30 -50 0
-43 -51 0
-43 -52 0
-43 -53 0
-43 -55 0
-43 -58 0
-43 -59 0
-43 -61 0
-43 -62 0
-43 -63 0
-56 -64 0
-56 -65 0
-56 -66 0
-56 -68 0
-56 -71 0
-56 -72 0
-56 -74 0
-56 -75 0
-56 -76 0
-69 -77 0
-69 -78 0
-69 -79 0
-69 -81 0
-69 -84 0
-69 -85 0
-69 -87 0
-69 -88 0
-69 -89 0
-30 -43 2 0
-43 -56 4 0
-56 -69 6 0
-69 -82 8 0
-30 -9 0
-43 -13 0
-56 -17 0
-69 -21 0
-30 -235 248 0
-30 -236 249 0
-30 -237 250 0
-30 -239 252 0
-30 -242 255 0
-30 -243 256 0
-30 -245 258 0
-30 -246 259 0
-30 -247 260 0
-43 -248 261 0
-43 -249 262 0
-43 -250 263 0
-43 -252 265 0
-43 -255 268 0
-43 -256 269 0
-43 -258 271 0
-43 -259 272 0
-43 -260 273 0
-56 -261 274 0
-56 -262 275 0
-56 -263 276 0
-56 -265 278 0
-56 -268 281 0
-56 -269 282 0
-56 -271 284 0
-56 -272 285 0
-56 -273 286 0
-69 -274 287 0
-69 -275 288 0
-69 -276 289 0
-69 -278 291 0
-69 -281 294 0
-69 -282 295 0
-69 -284 297 0
-69 -285 298 0
-69 -286 299 0
-240 2 253 0
-253 4 266 0
-266 6 279 0
-279 8 292 0
-30 43 1 0
-43 56 3 0
-56 69 5 0
-69 82 7 0
-30 -1 -10 44 0
-43 -3 -14 57 0
-56 -5 -18 70 0
-69 -7 -22 83 0
-30 -1 -10 -254 0
-43 -3 -14 -267 0
-56 -5 -18 -280 0
-69 -7 -22 -293 0
-30 -1 -10 -41 0
-30 -1 -10 -47 0
-43 -3 -14 -54 0
-43 -3 -14 -60 0
-56 -5 -18 -67 0
-56 -5 -18 -73 0
-69 -7 -22 -80 0
-69 -7 -22 -86 0
-30 -2 -10 241 0
-43 -4 -14 254 0
-56 -6 -18 267 0
-69 -8 -22 280 0
-30 -2 -10 -254 0
-43 -4 -14 -267 0
-56 -6 -18 -280 0
-69 -8 -22 -293 0
-240 -2 -10 254 0
-253 -4 -14 267 0
-266 -6 -18 280 0
-279 -8 -22 293 0
-240 -1 -10 -254 0
-253 -3 -14 -267 0
-266 -5 -18 -280 0
-279 -7 -22 -293 0
-240 -1 -10 -319 0
-253 -3 -14 -332 0
-266 -5 -18 -345 0
-279 -7 -22 -358 0
-30 -10 -238 251 0
-30 -10 -244 257 0
-43 -14 -251 264 0
-43 -14 -257 270 0
-56 -18 -264 277 0
-56 -18 -270 283 0
-69 -22 -277 290 0
-69 -22 -283 296 0
-30 -1 -11 41 0
-43 -3 -15 54 0
-56 -5 -19 67 0
-69 -7 -23 80 0
-30 -1 -11 -251 0
-43 -3 -15 -264 0
-56 -5 -19 -277 0
-69 -7 -23 -290 0
-30 -1 -11 -44 0
-30 -1 -11 -47 0
-43 -3 -15 -57 0
-43 -3 -15 -60 0
-56 -5 -19 -70 0
-56 -5 -19 -73 0
-69 -7 -23 -83 0
-69 -7 -23 -86 0
-30 -2 -11 238 0
-43 -4 -15 251 0
-56 -6 -19 264 0
-69 -8 -23 277 0
-30 -2 -11 -251 0
-43 -4 -15 -264 0
-56 -6 -19 -277 0
-69 -8 -23 -290 0
-240 -2 -11 251 0
-253 -4 -15 264 0
-266 -6 -19 277 0
-279 -8 -23 290 0
-240 -1 -11 -251 0
-253 -3 -15 -264 0
-266 -5 -19 -277 0
-279 -7 -23 -290 0
-240 -1 -11 -316 0
-253 -3 -15 -329 0
-266 -5 -19 -342 0
-279 -7 -23 -355 0
-30 -11 -241 254 0
-30 -11 -244 257 0
-43 -15 -254 267 0
-43 -15 -257 270 0
-56 -19 -267 280 0
-56 -19 -270 283 0
-69 -23 -280 293 0
-69 -23 -283 296 0
-30 -1 -12 47 0
-43 -3 -16 60 0
-56 -5 -20 73 0
-69 -7 -24 86 0
-30 -1 -12 -257 0
-43 -3 -16 -270 0
-56 -5 -20 -283 0
-69 -7 -24 -296 0
-30 -1 -12 -44 0
-30 -1 -12 -41 0
-43 -3 -16 -57 0
-43 -3 -16 -54 0
-56 -5 -20 -70 0
-56 -5 -20 -67 0
-69 -7 -24 -83 0
-69 -7 -24 -80 0
-30 -2 -12 244 0
-43 -4 -16 257 0
-56 -6 -20 270 0
-69 -8 -24 283 0
-30 -2 -12 -257 0
-43 -4 -16 -270 0
-56 -6 -20 -283 0
-69 -8 -24 -296 0
-240 -2 -12 257 0
-253 -4 -16 270 0
-266 -6 -20 283 0
-279 -8 -24 296 0
-240 -1 -12 -257 0
-253 -3 -16 -270 0
-266 -5 -20 -283 0
-279 -7 -24 -296 0
-240 -1 -12 -322 0
-253 -3 -16 -335 0
-266 -5 -20 -348 0
-279 -7 -24 -361 0
-30 -12 -241 254 0
-30 -12 -238 251 0
-43 -16 -254 267 0
-43 -16 -251 264 0
-56 -20 -267 280 0
-56 -20 -264 277 0
-69 -24 -280 293 0
-69 -24 -277 290 0
-306 319 0
-319 332 0
-332 345 0
-345 358 0
-31 -38 0
-31 -39 0
-31 -40 0
-31 -41 0
-31 -42 0
-31 -46 0
-31 -47 0
-31 -49 0
-31 -50 0
-44 -51 0
-44 -52 0
-44 -53 0
-44 -54 0
-44 -55 0
-44 -59 0
-44 -60 0
-44 -62 0
-44 -63 0
-57 -64 0
-57 -65 0
-57 -66 0
-57 -67 0
-57 -68 0
-57 -72 0
-57 -73 0
-57 -75 0
-57 -76 0
-70 -77 0
-70 -78 0
-70 -79 0
-70 -80 0
-70 -81 0
-70 -85 0
-70 -86 0
-70 -88 0
-70 -89 0
-31 -44 2 0
-44 -57 4 0
-57 -70 6 0
-70 -83 8 0
-31 -11 0
-44 -15 0
-57 -19 0
-70 -23 0
-31 -235 248 0
-31 -236 249 0
-31 -237 250 0
-31 -238 251 0
-31 -239 252 0
-31 -243 256 0
-31 -244 257 0
-31 -246 259 0
-31 -247 260 0
-44 -248 261 0
-44 -249 262 0
-44 -250 263 0
-44 -251 264 0
-44 -252 265 0
-44 -256 269 0
-44 -257 270 0
-44 -259 272 0
-44 -260 273 0
-57 -261 274 0
-57 -262 275 0
-57 -263 276 0
-57 -264 277 0
-57 -265 278 0
-57 -269 282 0
-57 -270 283 0
-57 -272 285 0
-57 -273 286 0
-70 -274 287 0
-70 -275 288 0
-70 -276 289 0
-70 -277 290 0
-70 -278 291 0
-70 -282 295 0
-70 -283 296 0
-70 -285 298 0
-70 -286 299 0
-241 2 254 0
-254 4 267 0
-267 6 280 0
-280 8 293 0
-31 44 1 0
-44 57 3 0
-57 70 5 0
-70 83 7 0
-31 -1 -9 43 0
-44 -3 -13 56 0
-57 -5 -17 69 0
-70 -7 -21 82 0
-31 -1 -9 -253 0
-44 -3 -13 -266 0
-57 -5 -17 -279 0
-70 -7 -21 -292 0
-31 -1 -9 -45 0
-31 -1 -9 -48 0
-44 -3 -13 -58 0
-44 -3 -13 -61 0
-57 -5 -17 -71 0
-57 -5 -17 -74 0
-70 -7 -21 -84 0
-70 -7 -21 -87 0
-31 -2 -9 240 0
-44 -4 -13 253 0
-57 -6 -17 266 0
-70 -8 -21 279 0
-31 -2 -9 -253 0
-44 -4 -13 -266 0
-57 -6 -17 -279 0
-70 -8 -21 -292 0
-241 -2 -9 253 0
-254 -4 -13 266 0
-267 -6 -17 279 0
-280 -8 -21 292 0
-241 -1 -9 -253 0
-254 -3 -13 -266 0
-267 -5 -17 -279 0
-280 -7 -21 -292 0
-241 -1 -9 -318 0
-254 -3 -13 -331 0
-267 -5 -17 -344 0
-280 -7 -21 -357 0
-31 -9 -242 255 0
-31 -9 -245 258 0
-44 -13 -255 268 0
-44 -13 -258 271 0
-57 -17 -268 281 0
-57 -17 -271 284 0
-70 -21 -281 294 0
-70 -21 -284 297 0
-31 -1 -10 45 0
-44 -3 -14 58 0
-57 -5 -18 71 0
-70 -7 -22 84 0
-31 -1 -10 -255 0
-44 -3 -14 -268 0
-57 -5 -18 -281 0
-70 -7 -22 -294 0
-31 -1 -10 -43 0
-31 -1 -10 -48 0
-44 -3 -14 -56 0
-44 -3 -14 -61 0
-57 -5 -18 -69 0
-57 -5 -18 -74 0
-70 -7 -22 -82 0
-70 -7 -22 -87 0
-31 -2 -10 242 0
-44 -4 -14 255 0
-57 -6 -18 268 0
-70 -8 -22 281 0
-31 -2 -10 -255 0
-44 -4 -14 -268 0
-57 -6 -18 -281 0
-70 -8 -22 -294 0
-241 -2 -10 255 0
-254 -4 -14 268 0
-267 -6 -18 281 0
-280 -8 -22 294 0
-241 -1 -10 -255 0
-254 -3 -14 -268 0
-267 -5 -18 -281 0
-280 -7 -22 -294 0
-241 -1 -10 -320 0
-254 -3 -14 -333 0
-267 -5 -18 -346 0
-280 -7 -22 -359 0
-31 -10 -240 253 0
-31 -10 -245 258 0
-44 -14 -253 266 0
-44 -14 -258 271 0
-57 -18 -266 279 0
-57 -18 -271 284 0
-70 -22 -279 292 0
-70 -22 -284 297 0
-31 -1 -12 48 0
-44 -3 -16 61 0
-57 -5 -20 74 0
-70 -7 -24 87 0
-31 -1 -12 -258 0
-44 -3 -16 -271 0
-57 -5 -20 -284 0
-70 -7 -24 -297 0
-31 -1 -12 -43 0
-31 -1 -12 -45 0
-44 -3 -16 -56 0
-44 -3 -16 -58 0
-57 -5 -20 -69 0
-57 -5 -20 -71 0
-70 -7 -24 -82 0
-70 -7 -24 -84 0
-31 -2 -12 245 0
-44 -4 -16 258 0
-57 -6 -20 271 0
-70 -8 -24 284 0
-31 -2 -12 -258 0
-44 -4 -16 -271 0
-57 -6 -20 -284 0
-70 -8 -24 -297 0
-241 -2 -12 258 0
-254 -4 -16 271 0
-267 -6 -20 284 0
-280 -8 -24 297 0
-241 -1 -12 -258 0
-254 -3 -16 -271 0
-267 -5 -20 -284 0
-280 -7 -24 -297 0
-241 -1 -12 -323 0
-254 -3 -16 -336 0
-267 -5 -20 -349 0
-280 -7 -24 -362 0
-31 -12 -240 253 0
-31 -12 -242 255 0
-44 -16 -253 266 0
-44 -16 -255 268 0
-57 -20 -266 279 0
-57 -20 -268 281 0
-70 -24 -279 292 0
-70 -24 -281 294 0
-307 320 0
-320 333 0
-333 346 0
-346 359 0
-32 -38 0
-32 -39 0
-32 -40 0
-32 -41 0
-32 -42 0
-32 -43 0
-32 -47 0
-32 -48 0
-32 -50 0
-45 -51 0
-45 -52 0
-45 -53 0
-45 -54 0
-45 -55 0
-45 -56 0
-45 -60 0
-45 -61 0
-45 -63 0
-58 -64 0
-58 -65 0
-58 -66 0
-58 -67 0
-58 -68 0
-58 -69 0
-58 -73 0
-58 -74 0
-58 -76 0
-71 -77 0
-71 -78 0
-71 -79 0
-71 -80 0
-71 -81 0
-71 -82 0
-71 -86 0
-71 -87 0
-71 -89 0
-32 -45 2 0
-45 -58 4 0
-58 -71 6 0
-71 -84 8 0
-32 -11 0
-45 -15 0
-58 -19 0
-71 -23 0
-32 -235 248 0
-32 -236 249 0
-32 -237 250 0
-32 -238 251 0
-32 -239 252 0
-32 -240 253 0
-32 -244 257 0
-32 -245 258 0
-32 -247 260 0
-45 -248 261 0
-45 -249 262 0
-45 -250 263 0
-45 -251 264 0
-45 -252 265 0
-45 -253 266 0
-45 -257 270 0
-45 -258 271 0
-45 -260 273 0
-58 -261 274 0
-58 -262 275 0
-58 -263 276 0
-58 -264 277 0
-58 -265 278 0
-58 -266 279 0
-58 -270 283 0
-58 -271 284 0
-58 -273 286 0
-71 -274 287 0
-71 -275 288 0
-71 -276 289 0
-71 -277 290 0
-71 -278 291 0
-71 -279 292 0
-71 -283 296 0
-71 -284 297 0
-71 -286 299 0
-242 2 255 0
-255 4 268 0
-268 6 281 0
-281 8 294 0
-32 45 1 0
-45 58 3 0
-58 71 5 0
-71 84 7 0
-32 -1 -9 44 0
-45 -3 -13 57 0
-58 -5 -17 70 0
-71 -7 -21 83 0
-32 -1 -9 -254 0
-45 -3 -13 -267 0
-58 -5 -17 -280 0
-71 -7 -21 -293 0
-32 -1 -9 -46 0
-32 -1 -9 -49 0
-45 -3 -13 -59 0
-45 -3 -13 -62 0
-58 -5 -17 -72 0
-58 -5 -17 -75 0
-71 -7 -21 -85 0
-71 -7 -21 -88 0
-32 -2 -9 241 0
-45 -4 -13 254 0
-58 -6 -17 267 0
-71 -8 -21 280 0
-32 -2 -9 -254 0
-45 -4 -13 -267 0
-58 -6 -17 -280 0
-71 -8 -21 -293 0
-242 -2 -9 254 0
-255 -4 -13 267 0
-268 -6 -17 280 0
-281 -8 -21 293 0
-242 -1 -9 -254 0
-255 -3 -13 -267 0
-268 -5 -17 -280 0
-281 -7 -21 -293 0
-242 -1 -9 -319 0
-255 -3 -13 -332 0
-268 -5 -17 -345 0
-281 -7 -21 -358 0
-32 -9 -243 256 0
-32 -9 -246 259 0
-45 -13 -256 269 0
-45 -13 -259 272 0
-58 -17 -269 282 0
-58 -17 -272 285 0
-71 -21 -282 295 0
-71 -21 -285 298 0
-32 -1 -10 46 0
-45 -3 -14 59 0
-58 -5 -18 72 0
-71 -7 -22 85 0
-32 -1 -10 -256 0
-45 -3 -14 -269 0
-58 -5 -18 -282 0
-71 -7 -22 -295 0
-32 -1 -10 -44 0
-32 -1 -10 -49 0
-45 -3 -14 -57 0
-45 -3 -14 -62 0
-58 -5 -18 -70 0
-58 -5 -18 -75 0
-71 -7 -22 -83 0
-71 -7 -22 -88 0
-32 -2 -10 243 0
-45 -4 -14 256 0
-58 -6 -18 269 0
-71 -8 -22 282 0
-32 -2 -10 -256 0
-45 -4 -14 -269 0
-58 -6 -18 -282 0
-71 -8 -22 -295 0
-242 -2 -10 256 0
-255 -4 -14 269 0
-268 -6 -18 282 0
-281 -8 -22 295 0
-242 -1 -10 -256 0
-255 -3 -14 -269 0
-268 -5 -18 -282 0
-281 -7 -22 -295 0
-242 -1 -10 -321 0
-255 -3 -14 -334 0
-268 -5 -18 -347 0
-281 -7 -22 -360 0
-32 -10 -241 254 0
-32 -10 -246 259 0
-45 -14 -254 267 0
-45 -14 -259 272 0
-58 -18 -267 280 0
-58 -18 -272 285 0
-71 -22 -280 293 0
-71 -22 -285 298 0
-32 -1 -12 49 0
-45 -3 -16 62 0
-58 -5 -20 75 0
-71 -7 -24 88 0
-32 -1 -12 -259 0
-45 -3 -16 -272 0
-58 -5 -20 -285 0
-71 -7 -24 -298 0
-32 -1 -12 -44 0
-32 -1 -12 -46 0
-45 -3 -16 -57 0
-45 -3 -16 -59 0
-58 -5 -20 -70 0
-58 -5 -20 -72 0
-71 -7 -24 -83 0
-71 -7 -24 -85 0
-32 -2 -12 246 0
-45 -4 -16 259 0
-58 -6 -20 272 0
-71 -8 -24 285 0
-32 -2 -12 -259 0
-45 -4 -16 -272 0
-58 -6 -20 -285 0
-71 -8 -24 -298 0
-242 -2 -12 259 0
-255 -4 -16 272 0
-268 -6 -20 285 0
-281 -8 -24 298 0
-242 -1 -12 -259 0
-255 -3 -16 -272 0
-268 -5 -20 -285 0
-281 -7 -24 -298 0
-242 -1 -12 -324 0
-255 -3 -16 -337 0
-268 -5 -20 -350 0
-281 -7 -24 -363 0
-32 -12 -241 254 0
-32 -12 -243 256 0
-45 -16 -254 267 0
-45 -16 -256 269 0
-58 -20 -267 280 0
-58 -20 -269 282 0
-71 -24 -280 293 0
-71 -24 -282 295 0
-308 321 0
-321 334 0
-334 347 0
-347 360 0
-33 -38 0
-33 -39 0
-33 -40 0
-33 -41 0
-33 -43 0
-33 -44 0
-33 -47 0
-33 -48 0
-33 -49 0
-46 -51 0
-46 -52 0
-46 -53 0
-46 -54 0
-46 -56 0
-46 -57 0
-46 -60 0
-46 -61 0
-46 -62 0
-59 -64 0
-59 -65 0
-59 -66 0
-59 -67 0
-59 -69 0
-59 -70 0
-59 -73 0
-59 -74 0
-59 -75 0
-72 -77 0
-72 -78 0
-72 -79 0
-72 -80 0
-72 -82 0
-72 -83 0
-72 -86 0
-72 -87 0
-72 -88 0
-33 -46 2 0
-46 -59 4 0
-59 -72 6 0
-72 -85 8 0
-33 -10 0
-46 -14 0
-59 -18 0
-72 -22 0
-33 -235 248 0
-33 -236 249 0
-33 -237 250 0
-33 -238 251 0
-33 -240 253 0
-33 -241 254 0
-33 -244 257 0
-33 -245 258 0
-33 -246 259 0
-46 -248 261 0
-46 -249 262 0
-46 -250 263 0
-46 -251 264 0
-46 -253 266 0
-46 -254 267 0
-46 -257 270 0
-46 -258 271 0
-46 -259 272 0
-59 -261 274 0
-59 -262 275 0
-59 -263 276 0
-59 -264 277 0
-59 -266 279 0
-59 -267 280 0
-59 -270 283 0
-59 -271 284 0
-59 -272 285 0
-72 -274 287 0
-72 -275 288 0
-72 -276 289 0
-72 -277 290 0
-72 -279 292 0
-72 -280 293 0
-72 -283 296 0
-72 -284 297 0
-72 -285 298 0
-243 2 256 0
-256 4 269 0
-269 6 282 0
-282 8 295 0
-33 46 1 0
-46 59 3 0
-59 72 5 0
-72 85 7 0
-33 -1 -9 45 0
-46 -3 -13 58 0
-59 -5 -17 71 0
-72 -7 -21 84 0
-33 -1 -9 -255 0
-46 -3 -13 -268 0
-59 -5 -17 -281 0
-72 -7 -21 -294 0
-33 -1 -9 -42 0
-33 -1 -9 -50 0
-46 -3 -13 -55 0
-46 -3 -13 -63 0
-59 -5 -17 -68 0
-59 -5 -17 -76 0
-72 -7 -21 -81 0
-72 -7 -21 -89 0
-33 -2 -9 242 0
-46 -4 -13 255 0
-59 -6 -17 268 0
-72 -8 -21 281 0
-33 -2 -9 -255 0
-46 -4 -13 -268 0
-59 -6 -17 -281 0
-72 -8 -21 -294 0
-243 -2 -9 255 0
-256 -4 -13 268 0
-269 -6 -17 281 0
-282 -8 -21 294 0
-243 -1 -9 -255 0
-256 -3 -13 -268 0
-269 -5 -17 -281 0
-282 -7 -21 -294 0
-243 -1 -9 -320 0
-256 -3 -13 -333 0
-269 -5 -17 -346 0
-282 -7 -21 -359 0
-33 -9 -239 252 0
-33 -9 -247 260 0
-46 -13 -252 265 0
-46 -13 -260 273 0
-59 -17 -265 278 0
-59 -17 -273 286 0
-72 -21 -278 291 0
-72 -21 -286 299 0
-33 -1 -11 42 0
-46 -3 -15 55 0
-59 -5 -19 68 0
-72 -7 -23 81 0
-33 -1 -11 -252 0
-46 -3 -15 -265 0
-59 -5 -19 -278 0
-72 -7 -23 -291 0
-33 -1 -11 -45 0
-33 -1 -11 -50 0
-46 -3 -15 -58 0
-46 -3 -15 -63 0
-59 -5 -19 -71 0
-59 -5 -19 -76 0
-72 -7 -23 -84 0
-72 -7 -23 -89 0
-33 -2 -11 239 0
-46 -4 -15 252 0
-59 -6 -19 265 0
-72 -8 -23 278 0
-33 -2 -11 -252 0
-46 -4 -15 -265 0
-59 -6 -19 -278 0
-72 -8 -23 -291 0
-243 -2 -11 252 0
-256 -4 -15 265 0
-269 -6 -19 278 0
-282 -8 -23 291 0
-243 -1 -11 -252 0
-256 -3 -15 -265 0
-269 -5 -19 -278 0
-282 -7 -23 -291 0
-243 -1 -11 -317 0
-256 -3 -15 -330 0
-269 -5 -19 -343 0
-282 -7 -23 -356 0
-33 -11 -242 255 0
-33 -11 -247 260 0
-46 -15 -255 268 0
-46 -15 -260 273 0
-59 -19 -268 281 0
-59 -19 -273 286 0
-72 -23 -281 294 0
-72 -23 -286 299 0
-33 -1 -12 50 0
-46 -3 -16 63 0
-59 -5 -20 76 0
-72 -7 -24 89 0
-33 -1 -12 -260 0
-46 -3 -16 -273 0
-59 -5 -20 -286 0
-72 -7 -24 -299 0
-33 -1 -12 -45 0
-33 -1 -12 -42 0
-46 -3 -16 -58 0
-46 -3 -16 -55 0
-59 -5 -20 -71 0
-59 -5 -20 -68 0
-72 -7 -24 -84 0
-72 -7 -24 -81 0
-33 -2 -12 247 0
-46 -4 -16 260 0
-59 -6 -20 273 0
-72 -8 -24 286 0
-33 -2 -12 -260 0
-46 -4 -16 -273 0
-59 -6 -20 -286 0
-72 -8 -24 -299 0
-243 -2 -12 260 0
-256 -4 -16 273 0
-269 -6 -20 286 0
-282 -8 -24 299 0
-243 -1 -12 -260 0
-256 -3 -16 -273 0
-269 -5 -20 -286 0
-282 -7 -24 -299 0
-243 -1 -12 -325 0
-256 -3 -16 -338 0
-269 -5 -20 -351 0
-282 -7 -24 -364 0
-33 -12 -242 255 0
-33 -12 -239 252 0
-46 -16 -255 268 0
-46 -16 -252 265 0
-59 -20 -268 281 0
-59 -20 -265 278 0
-72 -24 -281 294 0
-72 -24 -278 291 0
-309 322 0
-322 335 0
-335 348 0
-348 361 0
-34 -38 0
-34 -39 0
-34 -40 0
-34 -41 0
-34 -42 0
-34 -44 0
-34 -45 0
-34 -46 0
-34 -49 0
-34 -50 0
-47 -51 0
-47 -52 0
-47 -53 0
-47 -54 0
-47 -55 0
-47 -57 0
-47 -58 0
-47 -59 0
-47 -62 0
-47 -63 0
-60 -64 0
-60 -65 0
-60 -66 0
-60 -67 0
-60 -68 0
-60 -70 0
-60 -71 0
-60 -72 0
-60 -75 0
-60 -76 0
-73 -77 0
-73 -78 0
-73 -79 0
-73 -80 0
-73 -81 0
-73 -83 0
-73 -84 0
-73 -85 0
-73 -88 0
-73 -89 0
-34 -47 2 0
-47 -60 4 0
-60 -73 6 0
-73 -86 8 0
-34 -9 0
-34 -12 0
-47 -13 0
-47 -16 0
-60 -17 0
-60 -20 0
-73 -21 0
-73 -24 0
-34 -235 248 0
-34 -236 249 0
-34 -237 250 0
-34 -238 251 0
-34 -239 252 0
-34 -241 254 0
-34 -242 255 0
-34 -243 256 0
-34 -246 259 0
-34 -247 260 0
-47 -248 261 0
-47 -249 262 0
-47 -250 263 0
-47 -251 264 0
-47 -252 265 0
-47 -254 267 0
-47 -255 268 0
-47 -256 269 0
-47 -259 272 0
-47 -260 273 0
-60 -261 274 0
-60 -262 275 0
-60 -263 276 0
-60 -264 277 0
-60 -265 278 0
-60 -267 280 0
-60 -268 281 0
-60 -269 282 0
-60 -272 285 0
-60 -273 286 0
-73 -274 287 0
-73 -275 288 0
-73 -276 289 0
-73 -277 290 0
-73 -278 291 0
-73 -280 293 0
-73 -281 294 0
-73 -282 295 0
-73 -285 298 0
-73 -286 299 0
-244 2 257 0
-257 4 270 0
-270 6 283 0
-283 8 296 0
-34 47 1 0
-47 60 3 0
-60 73 5 0
-73 86 7 0
-34 -1 -10 48 0
-47 -3 -14 61 0
-60 -5 -18 74 0
-73 -7 -22 87 0
-34 -1 -10 -258 0
-47 -3 -14 -271 0
-60 -5 -18 -284 0
-73 -7 -22 -297 0
-34 -1 -10 -43 0
-47 -3 -14 -56 0
-60 -5 -18 -69 0
-73 -7 -22 -82 0
-34 -2 -10 245 0
-47 -4 -14 258 0
-60 -6 -18 271 0
-73 -8 -22 284 0
-34 -2 -10 -258 0
-47 -4 -14 -271 0
-60 -6 -18 -284 0
-73 -8 -22 -297 0
-244 -2 -10 258 0
-257 -4 -14 271 0
-270 -6 -18 284 0
-283 -8 -22 297 0
-244 -1 -10 -258 0
-257 -3 -14 -271 0
-270 -5 -18 -284 0
-283 -7 -22 -297 0
-244 -1 -10 -323 0
-257 -3 -14 -336 0
-270 -5 -18 -349 0
-283 -7 -22 -362 0
-34 -10 -240 253 0
-47 -14 -253 266 0
-60 -18 -266 279 0
-73 -22 -279 292 0
-34 -1 -11 43 0
-47 -3 -15 56 0
-60 -5 -19 69 0
-73 -7 -23 82 0
-34 -1 -11 -253 0
-47 -3 -15 -266 0
-60 -5 -19 -279 0
-73 -7 -23 -292 0
-34 -1 -11 -48 0
-47 -3 -15 -61 0
-60 -5 -19 -74 0
-73 -7 -23 -87 0
-34 -2 -11 240 0
-47 -4 -15 253 0
-60 -6 -19 266 0
-73 -8 -23 279 0
-34 -2 -11 -253 0
-47 -4 -15 -266 0
-60 -6 -19 -279 0
-73 -8 -23 -292 0
-244 -2 -11 253 0
-257 -4 -15 266 0
-270 -6 -19 279 0
-283 -8 -23 292 0
-244 -1 -11 -253 0
-257 -3 -15 -266 0
-270 -5 -19 -279 0
-283 -7 -23 -292 0
-244 -1 -11 -318 0
-257 -3 -15 -331 0
-270 -5 -19 -344 0
-283 -7 -23 -357 0
-34 -11 -245 258 0
-47 -15 -258 271 0
-60 -19 -271 284 0
-73 -23 -284 297 0
-310 323 0
-323 336 0
-336 349 0
-349 362 0
-35 -38 0
-35 -39 0
-35 -40 0
-35 -41 0
-35 -42 0
-35 -43 0
-35 -45 0
-35 -46 0
-35 -50 0
-48 -51 0
-48 -52 0
-48 -53 0
-48 -54 0
-48 -55 0
-48 -56 0
-48 -58 0
-48 -59 0
-48 -63 0
-61 -64 0
-61 -65 0
-61 -66 0
-61 -67 0
-61 -68 0
-61 -69 0
-61 -71 0
-61 -72 0
-61 -76 0
-74 -77 0
-74 -78 0
-74 -79 0
-74 -80 0
-74 -81 0
-74 -82 0
-74 -84 0
-74 -85 0
-74 -89 0
-35 -48 2 0
-48 -61 4 0
-61 -74 6 0
-74 -87 8 0
-35 -12 0
-48 -16 0
-61 -20 0
-74 -24 0
-35 -235 248 0
-35 -236 249 0
-35 -237 250 0
-35 -238 251 0
-35 -239 252 0
-35 -240 253 0
-35 -242 255 0
-35 -243 256 0
-35 -247 260 0
-48 -248 261 0
-48 -249 262 0
-48 -250 263 0
-48 -251 264 0
-48 -252 265 0
-48 -253 266 0
-48 -255 268 0
-48 -256 269 0
-48 -260 273 0
-61 -261 274 0
-61 -262 275 0
-61 -263 276 0
-61 -264 277 0
-61 -265 278 0
-61 -266 279 0
-61 -268 281 0
-61 -269 282 0
-61 -273 286 0
-74 -274 287 0
-74 -275 288 0
-74 -276 289 0
-74 -277 290 0
-74 -278 291 0
-74 -279 292 0
-74 -281 294 0
-74 -282 295 0
-74 -286 299 0
-245 2 258 0
-258 4 271 0
-271 6 284 0
-284 8 297 0
-35 48 1 0
-48 61 3 0
-61 74 5 0
-74 87 7 0
-35 -1 -9 47 0
-48 -3 -13 60 0
-61 -5 -17 73 0
-74 -7 -21 86 0
-35 -1 -9 -257 0
-48 -3 -13 -270 0
-61 -5 -17 -283 0
-74 -7 -21 -296 0
-35 -1 -9 -49 0
-35 -1 -9 -44 0
-48 -3 -13 -62 0
-48 -3 -13 -57 0
-61 -5 -17 -75 0
-61 -5 -17 -70 0
-74 -7 -21 -88 0
-74 -7 -21 -83 0
-35 -2 -9 244 0
-48 -4 -13 257 0
-61 -6 -17 270 0
-74 -8 -21 283 0
-35 -2 -9 -257 0
-48 -4 -13 -270 0
-61 -6 -17 -283 0
-74 -8 -21 -296 0
-245 -2 -9 257 0
-258 -4 -13 270 0
-271 -6 -17 283 0
-284 -8 -21 296 0
-245 -1 -9 -257 0
-258 -3 -13 -270 0
-271 -5 -17 -283 0
-284 -7 -21 -296 0
-245 -1 -9 -322 0
-258 -3 -13 -335 0
-271 -5 -17 -348 0
-284 -7 -21 -361 0
-35 -9 -246 259 0
-35 -9 -241 254 0
-48 -13 -259 272 0
-48 -13 -254 267 0
-61 -17 -272 285 0
-61 -17 -267 280 0
-74 -21 -285 298 0
-74 -21 -280 293 0
-35 -1 -10 49 0
-48 -3 -14 62 0
-61 -5 -18 75 0
-74 -7 -22 88 0
-35 -1 -10 -259 0
-48 -3 -14 -272 0
-61 -5 -18 -285 0
-74 -7 -22 -298 0
-35 -1 -10 -47 0
-35 -1 -10 -44 0
-48 -3 -14 -60 0
-48 -3 -14 -57 0
-61 -5 -18 -73 0
-61 -5 -18 -70 0
-74 -7 -22 -86 0
-74 -7 -22 -83 0
-35 -2 -10 246 0
-48 -4 -14 259 0
-61 -6 -18 272 0
-74 -8 -22 285 0
-35 -2 -10 -259 0
-48 -4 -14 -272 0
-61 -6 -18 -285 0
-74 -8 -22 -298 0
-245 -2 -10 259 0
-258 -4 -14 272 0
-271 -6 -18 285 0
-284 -8 -22 298 0
-245 -1 -10 -259 0
-258 -3 -14 -272 0
-271 -5 -18 -285 0
-284 -7 -22 -298 0
-245 -1 -10 -324 0
-258 -3 -14 -337 0
-271 -5 -18 -350 0
-284 -7 -22 -363 0
-35 -10 -244 257 0
-35 -10 -241 254 0
-48 -14 -257 270 0
-48 -14 -254 267 0
-61 -18 -270 283 0
-61 -18 -267 280 0
-74 -22 -283 296 0
-74 -22 -280 293 0
-35 -1 -11 44 0
-48 -3 -15 57 0
-61 -5 -19 70 0
-74 -7 -23 83 0
-35 -1 -11 -254 0
-48 -3 -15 -267 0
-61 -5 -19 -280 0
-74 -7 -23 -293 0
-35 -1 -11 -47 0
-35 -1 -11 -49 0
-48 -3 -15 -60 0
-48 -3 -15 -62 0
-61 -5 -19 -73 0
-61 -5 -19 -75 0
-74 -7 -23 -86 0
-74 -7 -23 -88 0
-35 -2 -11 241 0
-48 -4 -15 254 0
-61 -6 -19 267 0
-74 -8 -23 280 0
-35 -2 -11 -254 0
-48 -4 -15 -267 0
-61 -6 -19 -280 0
-74 -8 -23 -293 0
-245 -2 -11 254 0
-258 -4 -15 267 0
-271 -6 -19 280 0
-284 -8 -23 293 0
-245 -1 -11 -254 0
-258 -3 -15 -267 0
-271 -5 -19 -280 0
-284 -7 -23 -293 0
-245 -1 -11 -319 0
-258 -3 -15 -332 0
-271 -5 -19 -345 0
-284 -7 -23 -358 0
-35 -11 -244 257 0
-35 -11 -246 259 0
-48 -15 -257 270 0
-48 -15 -259 272 0
-61 -19 -270 283 0
-61 -19 -272 285 0
-74 -23 -283 296 0
-74 -23 -285 298 0
-311 324 0
-324 337 0
-337 350 0
-350 363 0
-36 -38 0
-36 -39 0
-36 -40 0
-36 -41 0
-36 -42 0
-36 -43 0
-36 -44 0
-36 -46 0
-36 -47 0
-49 -51 0
-49 -52 0
-49 -53 0
-49 -54 0
-49 -55 0
-49 -56 0
-49 -57 0
-49 -59 0
-49 -60 0
-62 -64 0
-62 -65 0
-62 -66 0
-62 -67 0
-62 -68 0
-62 -69 0
-62 -70 0
-62 -72 0
-62 -73 0
-75 -77 0
-75 -78 0
-75 -79 0
-75 -80 0
-75 -81 0
-75 -82 0
-75 -83 0
-75 -85 0
-75 -86 0
-36 -49 2 0
-49 -62 4 0
-62 -75 6 0
-75 -88 8 0
-36 -12 0
-49 -16 0
-62 -20 0
-75 -24 0
-36 -235 248 0
-36 -236 249 0
-36 -237 250 0
-36 -238 251 0
-36 -239 252 0
-36 -240 253 0
-36 -241 254 0
-36 -243 256 0
-36 -244 257 0
-49 -248 261 0
-49 -249 262 0
-49 -250 263 0
-49 -251 264 0
-49 -252 265 0
-49 -253 266 0
-49 -254 267 0
-49 -256 269 0
-49 -257 270 0
-62 -261 274 0
-62 -262 275 0
-62 -263 276 0
-62 -264 277 0
-62 -265 278 0
-62 -266 279 0
-62 -267 280 0
-62 -269 282 0
-62 -270 283 0
-75 -274 287 0
-75 -275 288 0
-75 -276 289 0
-75 -277 290 0
-75 -278 291 0
-75 -279 292 0
-75 -280 293 0
-75 -282 295 0
-75 -283 296 0
-246 2 259 0
-259 4 272 0
-272 6 285 0
-285 8 298 0
-36 49 1 0
-49 62 3 0
-62 75 5 0
-75 88 7 0
-36 -1 -9 48 0
-49 -3 -13 61 0
-62 -5 -17 74 0
-75 -7 -21 87 0
-36 -1 -9 -258 0
-49 -3 -13 -271 0
-62 -5 -17 -284 0
-75 -7 -21 -297 0
-36 -1 -9 -50 0
-36 -1 -9 -45 0
-49 -3 -13 -63 0
-49 -3 -13 -58 0
-62 -5 -17 -76 0
-62 -5 -17 -71 0
-75 -7 -21 -89 0
-75 -7 -21 -84 0
-36 -2 -9 245 0
-49 -4 -13 258 0
-62 -6 -17 271 0
-75 -8 -21 284 0
-36 -2 -9 -258 0
-49 -4 -13 -271 0
-62 -6 -17 -284 0
-75 -8 -21 -297 0
-246 -2 -9 258 0
-259 -4 -13 271 0
-272 -6 -17 284 0
-285 -8 -21 297 0
-246 -1 -9 -258 0
-259 -3 -13 -271 0
-272 -5 -17 -284 0
-285 -7 -21 -297 0
-246 -1 -9 -323 0
-259 -3 -13 -336 0
-272 -5 -17 -349 0
-285 -7 -21 -362 0
-36 -9 -247 260 0
-36 -9 -242 255 0
-49 -13 -260 273 0
-49 -13 -255 268 0
-62 -17 -273 286 0
-62 -17 -268 281 0
-75 -21 -286 299 0
-75 -21 -281 294 0
-36 -1 -10 50 0
-49 -3 -14 63 0
-62 -5 -18 76 0
-75 -7 -22 89 0
-36 -1 -10 -260 0
-49 -3 -14 -273 0
-62 -5 -18 -286 0
-75 -7 -22 -299 0
-36 -1 -10 -48 0
-36 -1 -10 -45 0
-49 -3 -14 -61 0
-49 -3 -14 -58 0
-62 -5 -18 -74 0
-62 -5 -18 -71 0
-75 -7 -22 -87 0
-75 -7 -22 -84 0
-36 -2 -10 247 0
-49 -4 -14 260 0
-62 -6 -18 273 0
-75 -8 -22 286 0
-36 -2 -10 -260 0
-49 -4 -14 -273 0
-62 -6 -18 -286 0
-75 -8 -22 -299 0
-246 -2 -10 260 0
-259 -4 -14 273 0
-272 -6 -18 286 0
-285 -8 -22 299 0
-246 -1 -10 -260 0
-259 -3 -14 -273 0
-272 -5 -18 -286 0
-285 -7 -22 -299 0
-246 -1 -10 -325 0
-259 -3 -14 -338 0
-272 -5 -18 -351 0
-285 -7 -22 -364 0
-36 -10 -245 258 0
-36 -10 -242 255 0
-49 -14 -258 271 0
-49 -14 -255 268 0
-62 -18 -271 284 0
-62 -18 -268 281 0
-75 -22 -284 297 0
-75 -22 -281 294 0
-36 -1 -11 45 0
-49 -3 -15 58 0
-62 -5 -19 71 0
-75 -7 -23 84 0
-36 -1 -11 -255 0
-49 -3 -15 -268 0
-62 -5 -19 -281 0
-75 -7 -23 -294 0
-36 -1 -11 -48 0
-36 -1 -11 -50 0
-49 -3 -15 -61 0
-49 -3 -15 -63 0
-62 -5 -19 -74 0
-62 -5 -19 -76 0
-75 -7 -23 -87 0
-75 -7 -23 -89 0
-36 -2 -11 242 0
-49 -4 -15 255 0
-62 -6 -19 268 0
-75 -8 -23 281 0
-36 -2 -11 -255 0
-49 -4 -15 -268 0
-62 -6 -19 -281 0
-75 -8 -23 -294 0
-246 -2 -11 255 0
-259 -4 -15 268 0
-272 -6 -19 281 0
-285 -8 -23 294 0
-246 -1 -11 -255 0
-259 -3 -15 -268 0
-272 -5 -19 -281 0
-285 -7 -23 -294 0
-246 -1 -11 -320 0
-259 -3 -15 -333 0
-272 -5 -19 -346 0
-285 -7 -23 -359 0
-36 -11 -245 258 0
-36 -11 -247 260 0
-49 -15 -258 271 0
-49 -15 -260 273 0
-62 -19 -271 284 0
-62 -19 -273 286 0
-75 -23 -284 297 0
-75 -23 -286 299 0
-312 325 0
-325 338 0
-338 351 0
-351 364 0
-37 -38 0
-37 -39 0
-37 -40 0
-37 -41 0
-37 -42 0
-37 -43 0
-37 -44 0
-37 -45 0
-37 -47 0
-37 -48 0
-50 -51 0
-50 -52 0
-50 -53 0
-50 -54 0
-50 -55 0
-50 -56 0
-50 -57 0
-50 -58 0
-50 -60 0
-50 -61 0
-63 -64 0
-63 -65 0
-63 -66 0
-63 -67 0
-63 -68 0
-63 -69 0
-63 -70 0
-63 -71 0
-63 -73 0
-63 -74 0
-76 -77 0
-76 -78 0
-76 -79 0
-76 -80 0
-76 -81 0
-76 -82 0
-76 -83 0
-76 -84 0
-76 -86 0
-76 -87 0
-37 -50 2 0
-50 -63 4 0
-63 -76 6 0
-76 -89 8 0
-37 -10 0
-37 -12 0
-50 -14 0
-50 -16 0
-63 -18 0
-63 -20 0
-76 -22 0
-76 -24 0
-37 -235 248 0
-37 -236 249 0
-37 -237 250 0
-37 -238 251 0
-37 -239 252 0
-37 -240 253 0
-37 -241 254 0
-37 -242 255 0
-37 -244 257 0
-37 -245 258 0
-50 -248 261 0
-50 -249 262 0
-50 -250 263 0
-50 -251 264 0
-50 -252 265 0
-50 -253 266 0
-50 -254 267 0
-50 -255 268 0
-50 -257 270 0
-50 -258 271 0
-63 -261 274 0
-63 -262 275 0
-63 -263 276 0
-63 -264 277 0
-63 -265 278 0
-63 -266 279 0
-63 -267 280 0
-63 -268 281 0
-63 -270 283 0
-63 -271 284 0
-76 -274 287 0
-76 -275 288 0
-76 -276 289 0
-76 -277 290 0
-76 -278 291 0
-76 -279 292 0
-76 -280 293 0
-76 -281 294 0
-76 -283 296 0
-76 -284 297 0
-247 2 260 0
-260 4 273 0
-273 6 286 0
-286 8 299 0
-37 50 1 0
-50 63 3 0
-63 76 5 0
-76 89 7 0
-37 -1 -9 49 0
-50 -3 -13 62 0
-63 -5 -17 75 0
-76 -7 -21 88 0
-37 -1 -9 -259 0
-50 -3 -13 -272 0
-63 -5 -17 -285 0
-76 -7 -21 -298 0
-37 -1 -9 -46 0
-50 -3 -13 -59 0
-63 -5 -17 -72 0
-76 -7 -21 -85 0
-37 -2 -9 246 0
-50 -4 -13 259 0
-63 -6 -17 272 0
-76 -8 -21 285 0
-37 -2 -9 -259 0
-50 -4 -13 -272 0
-63 -6 -17 -285 0
-76 -8 -21 -298 0
-247 -2 -9 259 0
-260 -4 -13 272 0
-273 -6 -17 285 0
-286 -8 -21 298 0
-247 -1 -9 -259 0
-260 -3 -13 -272 0
-273 -5 -17 -285 0
-286 -7 -21 -298 0
-247 -1 -9 -324 0
-260 -3 -13 -337 0
-273 -5 -17 -350 0
-286 -7 -21 -363 0
-37 -9 -243 256 0
-50 -13 -256 269 0
-63 -17 -269 282 0
-76 -21 -282 295 0
-37 -1 -11 46 0
-50 -3 -15 59 0
-63 -5 -19 72 0
-76 -7 -23 85 0
-37 -1 -11 -256 0
-50 -3 -15 -269 0
-63 -5 -19 -282 0
-76 -7 -23 -295 0
-37 -1 -11 -49 0
-50 -3 -15 -62 0
-63 -5 -19 -75 0
-76 -7 -23 -88 0
-37 -2 -11 243 0
-50 -4 -15 256 0
-63 -6 -19 269 0
-76 -8 -23 282 0
-37 -2 -11 -256 0
-50 -4 -15 -269 0
-63 -6 -19 -282 0
-76 -8 -23 -295 0
-247 -2 -11 256 0
-260 -4 -15 269 0
-273 -6 -19 282 0
-286 -8 -23 295 0
-247 -1 -11 -256 0
-260 -3 -15 -269 0
-273 -5 -19 -282 0
-286 -7 -23 -295 0
-247 -1 -11 -321 0
-260 -3 -15 -334 0
-273 -5 -19 -347 0
-286 -7 -23 -360 0
-37 -11 -246 259 0
-50 -15 -259 272 0
-63 -19 -272 285 0
-76 -23 -285 298 0
81 0
